\ENCODING=ISO-8859-1
\Problem name: IloCplex

Maximize
 obj1: z#280
Subject To
 c1:   q_0#0 <= 0
 c2:   q_1#1 <= 2
 c3:   q_2#2 <= 3
 c4:   q_3#3 <= 3
 c5:   q_4#4 <= 0
 c6:   q_5#5 <= 2
 c7:   q_6#6 <= 3
 c8:   q_7#7 <= 0
 c9:   q_4#4 + q_5#5 <= 2.56493
 c10:  q_4#4 + q_5#5 + q_7#7 <= 5.02207
 c11:  q_0#0 + q_6#6 <= 3.70318
 c12:  q_1#1 + q_4#4 <= 7.29748
 c13:  x_00#8 >= 1
 c14:  - 300 hap_1_00#9 + ap_00#10 <= 0
 c15:  x_00#8 + 2 hap_1_00#9 <= 3
 c16:  - x_02#11 - x_01#12 >= -1
 c17:  - 300 han_2_00#13 + an_00#14 <= 0
 c18:  - x_02#11 - x_01#12 + 2 han_2_00#13 <= 1
 c19:  x_17#15 + x_15#16 + x_14#17 >= 1
 c20:  - 300 hap_1_01#18 + ap_01#19 <= 0
 c21:  x_17#15 + x_15#16 + x_14#17 + 2 hap_1_01#18 <= 3
 c22:  - x_16#20 >= -1
 c23:  - 300 han_2_01#21 + an_01#22 <= 0
 c24:  - x_16#20 + 2 han_2_01#21 <= 1
 c25:  x_00#23 >= 1
 c26:  - 300 hap_1_10#24 + ap_10#25 <= 0
 c27:  x_00#23 + 2 hap_1_10#24 <= 3
 c28:  - x_02#26 - x_01#27 >= -1
 c29:  - 300 han_2_10#28 + an_10#29 <= 0
 c30:  - x_02#26 - x_01#27 + 2 han_2_10#28 <= 1
 c31:  x_17#30 + x_15#31 + x_14#32 >= 1
 c32:  - 300 hap_1_11#33 + ap_11#34 <= 0
 c33:  x_17#30 + x_15#31 + x_14#32 + 2 hap_1_11#33 <= 3
 c34:  - x_16#35 >= -1
 c35:  - 300 han_2_11#36 + an_11#37 <= 0
 c36:  - x_16#35 + 2 han_2_11#36 <= 1
 c37:  x_00#38 >= 1
 c38:  - 300 hap_1_20#39 + ap_20#40 <= 0
 c39:  x_00#38 + 2 hap_1_20#39 <= 3
 c40:  - x_02#41 - x_01#42 >= -1
 c41:  - 300 han_2_20#43 + an_20#44 <= 0
 c42:  - x_02#41 - x_01#42 + 2 han_2_20#43 <= 1
 c43:  x_17#45 + x_15#46 + x_14#47 >= 1
 c44:  - 300 hap_1_21#48 + ap_21#49 <= 0
 c45:  x_17#45 + x_15#46 + x_14#47 + 2 hap_1_21#48 <= 3
 c46:  - x_16#50 >= -1
 c47:  - 300 han_2_21#51 + an_21#52 <= 0
 c48:  - x_16#50 + 2 han_2_21#51 <= 1
 c49:  x_00#53 >= 1
 c50:  - 300 hap_1_30#54 + ap_30#55 <= 0
 c51:  x_00#53 + 2 hap_1_30#54 <= 3
 c52:  - x_02#56 - x_01#57 >= -1
 c53:  - 300 han_2_30#58 + an_30#59 <= 0
 c54:  - x_02#56 - x_01#57 + 2 han_2_30#58 <= 1
 c55:  x_17#60 + x_15#61 + x_14#62 >= 1
 c56:  - 300 hap_1_31#63 + ap_31#64 <= 0
 c57:  x_17#60 + x_15#61 + x_14#62 + 2 hap_1_31#63 <= 3
 c58:  - x_16#65 >= -1
 c59:  - 300 han_2_31#66 + an_31#67 <= 0
 c60:  - x_16#65 + 2 han_2_31#66 <= 1
 c61:  - x_00#8 + x_01#12 >= 0
 c62:  - 300 hb_000#68 + b_000#69 <= 0
 c63:  - x_00#8 + x_01#12 + 2 hb_000#68 <= 2
 c64:  - x_03#70 >= 0
 c65:  - 300 hb_004#71 + b_004#72 <= 0
 c66:  - x_03#70 + 2 hb_004#71 <= 2
 c67:  - x_04#73 >= 0
 c68:  - 300 hb_005#74 + b_005#75 <= 0
 c69:  - x_04#73 + 2 hb_005#74 <= 2
 c70:  x_02#11 - x_05#76 >= 0
 c71:  - 300 hb_006#77 + b_006#78 <= 0
 c72:  x_02#11 - x_05#76 + 2 hb_006#77 <= 2
 c73:  - x_06#79 >= 0
 c74:  - 300 hb_007#80 + b_007#81 <= 0
 c75:  - x_06#79 + 2 hb_007#80 <= 2
 c76:  x_06#79 - x_07#82 >= 0
 c77:  - 300 hb_008#83 + b_008#84 <= 0
 c78:  x_06#79 - x_07#82 + 2 hb_008#83 <= 2
 c79:  x_04#73 + x_05#76 + x_07#82 >= 0
 c80:  - 300 hb_009#85 + b_009#86 <= 0
 c81:  x_04#73 + x_05#76 + x_07#82 + 2 hb_009#85 <= 2
 c82:  x_11#87 - x_10#88 >= 0
 c83:  - 300 hb_010#89 + b_010#90 <= 0
 c84:  x_11#87 - x_10#88 + 2 hb_010#89 <= 2
 c85:  x_10#88 >= 0
 c86:  - 300 hb_012#91 + b_012#92 <= 0
 c87:  x_10#88 + 2 hb_012#91 <= 2
 c88:  - x_11#87 + x_13#93 - x_12#94 >= 0
 c89:  - 300 hb_013#95 + b_013#96 <= 0
 c90:  - x_11#87 + x_13#93 - x_12#94 + 2 hb_013#95 <= 2
 c91:  - x_13#93 >= 0
 c92:  - 300 hb_014#97 + b_014#98 <= 0
 c93:  - x_13#93 + 2 hb_014#97 <= 2
 c94:  - x_14#17 >= 0
 c95:  - 300 hb_015#99 + b_015#100 <= 0
 c96:  - x_14#17 + 2 hb_015#99 <= 2
 c97:  - x_15#16 + x_12#94 >= 0
 c98:  - 300 hb_016#101 + b_016#102 <= 0
 c99:  - x_15#16 + x_12#94 + 2 hb_016#101 <= 2
 c100: - x_17#15 + x_16#20 >= 0
 c101: - 300 hb_018#103 + b_018#104 <= 0
 c102: - x_17#15 + x_16#20 + 2 hb_018#103 <= 2
 c103: - x_00#23 + x_01#27 >= 0
 c104: - 300 hb_100#105 + b_100#106 <= 0
 c105: - x_00#23 + x_01#27 + 2 hb_100#105 <= 2
 c106: - x_03#107 >= 0
 c107: - 300 hb_104#108 + b_104#109 <= 0
 c108: - x_03#107 + 2 hb_104#108 <= 2
 c109: - x_04#110 >= 0
 c110: - 300 hb_105#111 + b_105#112 <= 0
 c111: - x_04#110 + 2 hb_105#111 <= 2
 c112: x_02#26 - x_05#113 >= 0
 c113: - 300 hb_106#114 + b_106#115 <= 0
 c114: x_02#26 - x_05#113 + 2 hb_106#114 <= 2
 c115: - x_06#116 >= 0
 c116: - 300 hb_107#117 + b_107#118 <= 0
 c117: - x_06#116 + 2 hb_107#117 <= 2
 c118: x_06#116 - x_07#119 >= 0
 c119: - 300 hb_108#120 + b_108#121 <= 0
 c120: x_06#116 - x_07#119 + 2 hb_108#120 <= 2
 c121: x_04#110 + x_05#113 + x_07#119 >= 0
 c122: - 300 hb_109#122 + b_109#123 <= 0
 c123: x_04#110 + x_05#113 + x_07#119 + 2 hb_109#122 <= 2
 c124: x_11#124 - x_10#125 >= 0
 c125: - 300 hb_110#126 + b_110#127 <= 0
 c126: x_11#124 - x_10#125 + 2 hb_110#126 <= 2
 c127: x_10#125 >= 0
 c128: - 300 hb_112#128 + b_112#129 <= 0
 c129: x_10#125 + 2 hb_112#128 <= 2
 c130: - x_11#124 + x_13#130 - x_12#131 >= 0
 c131: - 300 hb_113#132 + b_113#133 <= 0
 c132: - x_11#124 + x_13#130 - x_12#131 + 2 hb_113#132 <= 2
 c133: - x_13#130 >= 0
 c134: - 300 hb_114#134 + b_114#135 <= 0
 c135: - x_13#130 + 2 hb_114#134 <= 2
 c136: - x_14#32 >= 0
 c137: - 300 hb_115#136 + b_115#137 <= 0
 c138: - x_14#32 + 2 hb_115#136 <= 2
 c139: - x_15#31 + x_12#131 >= 0
 c140: - 300 hb_116#138 + b_116#139 <= 0
 c141: - x_15#31 + x_12#131 + 2 hb_116#138 <= 2
 c142: - x_17#30 + x_16#35 >= 0
 c143: - 300 hb_118#140 + b_118#141 <= 0
 c144: - x_17#30 + x_16#35 + 2 hb_118#140 <= 2
 c145: - x_00#38 + x_01#42 >= 0
 c146: - 300 hb_200#142 + b_200#143 <= 0
 c147: - x_00#38 + x_01#42 + 2 hb_200#142 <= 2
 c148: - x_03#144 >= 0
 c149: - 300 hb_204#145 + b_204#146 <= 0
 c150: - x_03#144 + 2 hb_204#145 <= 2
 c151: - x_04#147 >= 0
 c152: - 300 hb_205#148 + b_205#149 <= 0
 c153: - x_04#147 + 2 hb_205#148 <= 2
 c154: x_02#41 - x_05#150 >= 0
 c155: - 300 hb_206#151 + b_206#152 <= 0
 c156: x_02#41 - x_05#150 + 2 hb_206#151 <= 2
 c157: - x_06#153 >= 0
 c158: - 300 hb_207#154 + b_207#155 <= 0
 c159: - x_06#153 + 2 hb_207#154 <= 2
 c160: x_06#153 - x_07#156 >= 0
 c161: - 300 hb_208#157 + b_208#158 <= 0
 c162: x_06#153 - x_07#156 + 2 hb_208#157 <= 2
 c163: x_04#147 + x_05#150 + x_07#156 >= 0
 c164: - 300 hb_209#159 + b_209#160 <= 0
 c165: x_04#147 + x_05#150 + x_07#156 + 2 hb_209#159 <= 2
 c166: x_11#161 - x_10#162 >= 0
 c167: - 300 hb_210#163 + b_210#164 <= 0
 c168: x_11#161 - x_10#162 + 2 hb_210#163 <= 2
 c169: x_10#162 >= 0
 c170: - 300 hb_212#165 + b_212#166 <= 0
 c171: x_10#162 + 2 hb_212#165 <= 2
 c172: - x_11#161 + x_13#167 - x_12#168 >= 0
 c173: - 300 hb_213#169 + b_213#170 <= 0
 c174: - x_11#161 + x_13#167 - x_12#168 + 2 hb_213#169 <= 2
 c175: - x_13#167 >= 0
 c176: - 300 hb_214#171 + b_214#172 <= 0
 c177: - x_13#167 + 2 hb_214#171 <= 2
 c178: - x_14#47 >= 0
 c179: - 300 hb_215#173 + b_215#174 <= 0
 c180: - x_14#47 + 2 hb_215#173 <= 2
 c181: - x_15#46 + x_12#168 >= 0
 c182: - 300 hb_216#175 + b_216#176 <= 0
 c183: - x_15#46 + x_12#168 + 2 hb_216#175 <= 2
 c184: - x_17#45 + x_16#50 >= 0
 c185: - 300 hb_218#177 + b_218#178 <= 0
 c186: - x_17#45 + x_16#50 + 2 hb_218#177 <= 2
 c187: - x_00#53 + x_01#57 >= 0
 c188: - 300 hb_300#179 + b_300#180 <= 0
 c189: - x_00#53 + x_01#57 + 2 hb_300#179 <= 2
 c190: - x_03#181 >= 0
 c191: - 300 hb_304#182 + b_304#183 <= 0
 c192: - x_03#181 + 2 hb_304#182 <= 2
 c193: - x_04#184 >= 0
 c194: - 300 hb_305#185 + b_305#186 <= 0
 c195: - x_04#184 + 2 hb_305#185 <= 2
 c196: x_02#56 - x_05#187 >= 0
 c197: - 300 hb_306#188 + b_306#189 <= 0
 c198: x_02#56 - x_05#187 + 2 hb_306#188 <= 2
 c199: - x_06#190 >= 0
 c200: - 300 hb_307#191 + b_307#192 <= 0
 c201: - x_06#190 + 2 hb_307#191 <= 2
 c202: x_06#190 - x_07#193 >= 0
 c203: - 300 hb_308#194 + b_308#195 <= 0
 c204: x_06#190 - x_07#193 + 2 hb_308#194 <= 2
 c205: x_04#184 + x_05#187 + x_07#193 >= 0
 c206: - 300 hb_309#196 + b_309#197 <= 0
 c207: x_04#184 + x_05#187 + x_07#193 + 2 hb_309#196 <= 2
 c208: x_11#198 - x_10#199 >= 0
 c209: - 300 hb_310#200 + b_310#201 <= 0
 c210: x_11#198 - x_10#199 + 2 hb_310#200 <= 2
 c211: x_10#199 >= 0
 c212: - 300 hb_312#202 + b_312#203 <= 0
 c213: x_10#199 + 2 hb_312#202 <= 2
 c214: - x_11#198 + x_13#204 - x_12#205 >= 0
 c215: - 300 hb_313#206 + b_313#207 <= 0
 c216: - x_11#198 + x_13#204 - x_12#205 + 2 hb_313#206 <= 2
 c217: - x_13#204 >= 0
 c218: - 300 hb_314#208 + b_314#209 <= 0
 c219: - x_13#204 + 2 hb_314#208 <= 2
 c220: - x_14#62 >= 0
 c221: - 300 hb_315#210 + b_315#211 <= 0
 c222: - x_14#62 + 2 hb_315#210 <= 2
 c223: - x_15#61 + x_12#205 >= 0
 c224: - 300 hb_316#212 + b_316#213 <= 0
 c225: - x_15#61 + x_12#205 + 2 hb_316#212 <= 2
 c226: - x_17#60 + x_16#65 >= 0
 c227: - 300 hb_318#214 + b_318#215 <= 0
 c228: - x_17#60 + x_16#65 + 2 hb_318#214 <= 2
 c229: - q_0#0 + ap_00#10 - b_000#69 <= 0
 c230: x_00#8 - 2 hdu_000#216 <= 0
 c231: q_0#0 - ap_00#10 + b_000#69 + 300 hdu_000#216 <= 300
 c232: - q_1#1 - an_00#14 + b_000#69 <= 0
 c233: x_01#12 - 2 hdu_001#217 <= 0
 c234: q_1#1 + an_00#14 - b_000#69 + 300 hdu_001#217 <= 300
 c235: - q_2#2 - an_00#14 + b_006#78 <= 1
 c236: x_02#11 - 2 hdu_002#218 <= 0
 c237: q_2#2 + an_00#14 - b_006#78 + 300 hdu_002#218 <= 299
 c238: - q_3#3 - b_004#72 <= 0
 c239: x_03#70 - 2 hdu_003#219 <= 0
 c240: q_3#3 + b_004#72 + 300 hdu_003#219 <= 300
 c241: - q_4#4 - b_005#75 + b_009#86 <= 0.174999999999955
 c242: x_04#73 - 2 hdu_004#220 <= 0
 c243: q_4#4 + b_005#75 - b_009#86 + 300 hdu_004#220 <= 299.825
 c244: - q_5#5 - b_006#78 + b_009#86 <= 0
 c245: x_05#76 - 2 hdu_005#221 <= 0
 c246: q_5#5 + b_006#78 - b_009#86 + 300 hdu_005#221 <= 300
 c247: - q_6#6 - b_007#81 + b_008#84 <= 0
 c248: x_06#79 - 2 hdu_006#222 <= 0
 c249: q_6#6 + b_007#81 - b_008#84 + 300 hdu_006#222 <= 300
 c250: - q_7#7 - b_008#84 + b_009#86 <= 0.324999999999932
 c251: x_07#82 - 2 hdu_007#223 <= 0
 c252: q_7#7 + b_008#84 - b_009#86 + 300 hdu_007#223 <= 299.675
 c253: - q_0#0 - b_010#90 + b_012#92 <= 0
 c254: x_10#88 - 2 hdu_010#224 <= 0
 c255: q_0#0 + b_010#90 - b_012#92 + 300 hdu_010#224 <= 300
 c256: - q_1#1 + b_010#90 - b_013#96 <= 0
 c257: x_11#87 - 2 hdu_011#225 <= 0
 c258: q_1#1 - b_010#90 + b_013#96 + 300 hdu_011#225 <= 300
 c259: - q_2#2 - b_013#96 + b_016#102 <= 0
 c260: x_12#94 - 2 hdu_012#226 <= 0
 c261: q_2#2 + b_013#96 - b_016#102 + 300 hdu_012#226 <= 300
 c262: - q_3#3 + b_013#96 - b_014#98 <= 0
 c263: x_13#93 - 2 hdu_013#227 <= 0
 c264: q_3#3 - b_013#96 + b_014#98 + 300 hdu_013#227 <= 300
 c265: - q_4#4 + ap_01#19 - b_015#100 <= 2
 c266: x_14#17 - 2 hdu_014#228 <= 0
 c267: q_4#4 - ap_01#19 + b_015#100 + 300 hdu_014#228 <= 298
 c268: - q_5#5 + ap_01#19 - b_016#102 <= 0.625
 c269: x_15#16 - 2 hdu_015#229 <= 0
 c270: q_5#5 - ap_01#19 + b_016#102 + 300 hdu_015#229 <= 299.375
 c271: - q_6#6 - an_01#22 + b_018#104 <= -5.6843418860808e-14
 c272: x_16#20 - 2 hdu_016#230 <= 0
 c273: q_6#6 + an_01#22 - b_018#104 + 300 hdu_016#230 <= 300
 c274: - q_7#7 + ap_01#19 - b_018#104 <= -4.52970994047064e-14
 c275: x_17#15 - 2 hdu_017#231 <= 0
 c276: q_7#7 - ap_01#19 + b_018#104 + 300 hdu_017#231 <= 300
 c277: - q_0#0 + ap_10#25 - b_100#106 <= 0
 c278: x_00#23 - 2 hdu_100#232 <= 0
 c279: q_0#0 - ap_10#25 + b_100#106 + 300 hdu_100#232 <= 300
 c280: - q_1#1 - an_10#29 + b_100#106 <= 0
 c281: x_01#27 - 2 hdu_101#233 <= 0
 c282: q_1#1 + an_10#29 - b_100#106 + 300 hdu_101#233 <= 300
 c283: - q_2#2 - an_10#29 + b_106#115 <= 1
 c284: x_02#26 - 2 hdu_102#234 <= 0
 c285: q_2#2 + an_10#29 - b_106#115 + 300 hdu_102#234 <= 299
 c286: - q_3#3 - b_104#109 <= 0
 c287: x_03#107 - 2 hdu_103#235 <= 0
 c288: q_3#3 + b_104#109 + 300 hdu_103#235 <= 300
 c289: - q_4#4 - b_105#112 + b_109#123 <= 0.174999999999955
 c290: x_04#110 - 2 hdu_104#236 <= 0
 c291: q_4#4 + b_105#112 - b_109#123 + 300 hdu_104#236 <= 299.825
 c292: - q_5#5 - b_106#115 + b_109#123 <= 0
 c293: x_05#113 - 2 hdu_105#237 <= 0
 c294: q_5#5 + b_106#115 - b_109#123 + 300 hdu_105#237 <= 300
 c295: - q_6#6 - b_107#118 + b_108#121 <= 0
 c296: x_06#116 - 2 hdu_106#238 <= 0
 c297: q_6#6 + b_107#118 - b_108#121 + 300 hdu_106#238 <= 300
 c298: - q_7#7 - b_108#121 + b_109#123 <= 0.324999999999932
 c299: x_07#119 - 2 hdu_107#239 <= 0
 c300: q_7#7 + b_108#121 - b_109#123 + 300 hdu_107#239 <= 299.675
 c301: - q_0#0 - b_110#127 + b_112#129 <= 0
 c302: x_10#125 - 2 hdu_110#240 <= 0
 c303: q_0#0 + b_110#127 - b_112#129 + 300 hdu_110#240 <= 300
 c304: - q_1#1 + b_110#127 - b_113#133 <= 0
 c305: x_11#124 - 2 hdu_111#241 <= 0
 c306: q_1#1 - b_110#127 + b_113#133 + 300 hdu_111#241 <= 300
 c307: - q_2#2 - b_113#133 + b_116#139 <= 0
 c308: x_12#131 - 2 hdu_112#242 <= 0
 c309: q_2#2 + b_113#133 - b_116#139 + 300 hdu_112#242 <= 300
 c310: - q_3#3 + b_113#133 - b_114#135 <= 0
 c311: x_13#130 - 2 hdu_113#243 <= 0
 c312: q_3#3 - b_113#133 + b_114#135 + 300 hdu_113#243 <= 300
 c313: - q_4#4 + ap_11#34 - b_115#137 <= 2
 c314: x_14#32 - 2 hdu_114#244 <= 0
 c315: q_4#4 - ap_11#34 + b_115#137 + 300 hdu_114#244 <= 298
 c316: - q_5#5 + ap_11#34 - b_116#139 <= 2
 c317: x_15#31 - 2 hdu_115#245 <= 0
 c318: q_5#5 - ap_11#34 + b_116#139 + 300 hdu_115#245 <= 298
 c319: - q_6#6 - an_11#37 + b_118#141 <= 0
 c320: x_16#35 - 2 hdu_116#246 <= 0
 c321: q_6#6 + an_11#37 - b_118#141 + 300 hdu_116#246 <= 300
 c322: - q_7#7 + ap_11#34 - b_118#141 <= -5.6843418860808e-14
 c323: x_17#30 - 2 hdu_117#247 <= 0
 c324: q_7#7 - ap_11#34 + b_118#141 + 300 hdu_117#247 <= 300
 c325: - q_0#0 + ap_20#40 - b_200#143 <= 0
 c326: x_00#38 - 2 hdu_200#248 <= 0
 c327: q_0#0 - ap_20#40 + b_200#143 + 300 hdu_200#248 <= 300
 c328: - q_1#1 - an_20#44 + b_200#143 <= 0
 c329: x_01#42 - 2 hdu_201#249 <= 0
 c330: q_1#1 + an_20#44 - b_200#143 + 300 hdu_201#249 <= 300
 c331: - q_2#2 - an_20#44 + b_206#152 <= 1
 c332: x_02#41 - 2 hdu_202#250 <= 0
 c333: q_2#2 + an_20#44 - b_206#152 + 300 hdu_202#250 <= 299
 c334: - q_3#3 - b_204#146 <= 0
 c335: x_03#144 - 2 hdu_203#251 <= 0
 c336: q_3#3 + b_204#146 + 300 hdu_203#251 <= 300
 c337: - q_4#4 - b_205#149 + b_209#160 <= 0.174999999999955
 c338: x_04#147 - 2 hdu_204#252 <= 0
 c339: q_4#4 + b_205#149 - b_209#160 + 300 hdu_204#252 <= 299.825
 c340: - q_5#5 - b_206#152 + b_209#160 <= 0
 c341: x_05#150 - 2 hdu_205#253 <= 0
 c342: q_5#5 + b_206#152 - b_209#160 + 300 hdu_205#253 <= 300
 c343: - q_6#6 - b_207#155 + b_208#158 <= 0
 c344: x_06#153 - 2 hdu_206#254 <= 0
 c345: q_6#6 + b_207#155 - b_208#158 + 300 hdu_206#254 <= 300
 c346: - q_7#7 - b_208#158 + b_209#160 <= 0.324999999999932
 c347: x_07#156 - 2 hdu_207#255 <= 0
 c348: q_7#7 + b_208#158 - b_209#160 + 300 hdu_207#255 <= 299.675
 c349: - q_0#0 - b_210#164 + b_212#166 <= 0
 c350: x_10#162 - 2 hdu_210#256 <= 0
 c351: q_0#0 + b_210#164 - b_212#166 + 300 hdu_210#256 <= 300
 c352: - q_1#1 + b_210#164 - b_213#170 <= 0
 c353: x_11#161 - 2 hdu_211#257 <= 0
 c354: q_1#1 - b_210#164 + b_213#170 + 300 hdu_211#257 <= 300
 c355: - q_2#2 - b_213#170 + b_216#176 <= 0
 c356: x_12#168 - 2 hdu_212#258 <= 0
 c357: q_2#2 + b_213#170 - b_216#176 + 300 hdu_212#258 <= 300
 c358: - q_3#3 + b_213#170 - b_214#172 <= 0
 c359: x_13#167 - 2 hdu_213#259 <= 0
 c360: q_3#3 - b_213#170 + b_214#172 + 300 hdu_213#259 <= 300
 c361: - q_4#4 + ap_21#49 - b_215#174 <= 2
 c362: x_14#47 - 2 hdu_214#260 <= 0
 c363: q_4#4 - ap_21#49 + b_215#174 + 300 hdu_214#260 <= 298
 c364: - q_5#5 + ap_21#49 - b_216#176 <= 2
 c365: x_15#46 - 2 hdu_215#261 <= 0
 c366: q_5#5 - ap_21#49 + b_216#176 + 300 hdu_215#261 <= 298
 c367: - q_6#6 - an_21#52 + b_218#178 <= 0
 c368: x_16#50 - 2 hdu_216#262 <= 0
 c369: q_6#6 + an_21#52 - b_218#178 + 300 hdu_216#262 <= 300
 c370: - q_7#7 + ap_21#49 - b_218#178 <= -5.6843418860808e-14
 c371: x_17#45 - 2 hdu_217#263 <= 0
 c372: q_7#7 - ap_21#49 + b_218#178 + 300 hdu_217#263 <= 300
 c373: - q_0#0 + ap_30#55 - b_300#180 <= 0
 c374: x_00#53 - 2 hdu_300#264 <= 0
 c375: q_0#0 - ap_30#55 + b_300#180 + 300 hdu_300#264 <= 300
 c376: - q_1#1 - an_30#59 + b_300#180 <= 0
 c377: x_01#57 - 2 hdu_301#265 <= 0
 c378: q_1#1 + an_30#59 - b_300#180 + 300 hdu_301#265 <= 300
 c379: - q_2#2 - an_30#59 + b_306#189 <= 1
 c380: x_02#56 - 2 hdu_302#266 <= 0
 c381: q_2#2 + an_30#59 - b_306#189 + 300 hdu_302#266 <= 299
 c382: - q_3#3 - b_304#183 <= 0
 c383: x_03#181 - 2 hdu_303#267 <= 0
 c384: q_3#3 + b_304#183 + 300 hdu_303#267 <= 300
 c385: - q_4#4 - b_305#186 + b_309#197 <= 0.174999999999955
 c386: x_04#184 - 2 hdu_304#268 <= 0
 c387: q_4#4 + b_305#186 - b_309#197 + 300 hdu_304#268 <= 299.825
 c388: - q_5#5 - b_306#189 + b_309#197 <= 0
 c389: x_05#187 - 2 hdu_305#269 <= 0
 c390: q_5#5 + b_306#189 - b_309#197 + 300 hdu_305#269 <= 300
 c391: - q_6#6 - b_307#192 + b_308#195 <= 0
 c392: x_06#190 - 2 hdu_306#270 <= 0
 c393: q_6#6 + b_307#192 - b_308#195 + 300 hdu_306#270 <= 300
 c394: - q_7#7 - b_308#195 + b_309#197 <= 0.324999999999932
 c395: x_07#193 - 2 hdu_307#271 <= 0
 c396: q_7#7 + b_308#195 - b_309#197 + 300 hdu_307#271 <= 299.675
 c397: - q_0#0 - b_310#201 + b_312#203 <= 0
 c398: x_10#199 - 2 hdu_310#272 <= 0
 c399: q_0#0 + b_310#201 - b_312#203 + 300 hdu_310#272 <= 300
 c400: - q_1#1 + b_310#201 - b_313#207 <= 0
 c401: x_11#198 - 2 hdu_311#273 <= 0
 c402: q_1#1 - b_310#201 + b_313#207 + 300 hdu_311#273 <= 300
 c403: - q_2#2 - b_313#207 + b_316#213 <= 0
 c404: x_12#205 - 2 hdu_312#274 <= 0
 c405: q_2#2 + b_313#207 - b_316#213 + 300 hdu_312#274 <= 300
 c406: - q_3#3 + b_313#207 - b_314#209 <= 0
 c407: x_13#204 - 2 hdu_313#275 <= 0
 c408: q_3#3 - b_313#207 + b_314#209 + 300 hdu_313#275 <= 300
 c409: - q_4#4 + ap_31#64 - b_315#211 <= 2
 c410: x_14#62 - 2 hdu_314#276 <= 0
 c411: q_4#4 - ap_31#64 + b_315#211 + 300 hdu_314#276 <= 298
 c412: - q_5#5 + ap_31#64 - b_316#213 <= 2
 c413: x_15#61 - 2 hdu_315#277 <= 0
 c414: q_5#5 - ap_31#64 + b_316#213 + 300 hdu_315#277 <= 298
 c415: - q_6#6 - an_31#67 + b_318#215 <= 0
 c416: x_16#65 - 2 hdu_316#278 <= 0
 c417: q_6#6 + an_31#67 - b_318#215 + 300 hdu_316#278 <= 300
 c418: - q_7#7 + ap_31#64 - b_318#215 <= -5.6843418860808e-14
 c419: x_17#60 - 2 hdu_317#279 <= 0
 c420: q_7#7 - ap_31#64 + b_318#215 + 300 hdu_317#279 <= 300
 c421: 2 x_00#8 - ap_00#10 + 3 x_02#11 + x_01#12 + an_00#14
       + 1.99999999999995 x_17#15 + 3.625 x_15#16 + 3 x_14#17 - ap_01#19
       + x_16#20 + an_01#22 + x_03#70 + 1.17499999999995 x_04#73 + 3 x_05#76
       + x_06#79 + 2.32499999999993 x_07#82 + x_11#87 + 2 x_10#88 + x_13#93
       + 2 x_12#94 + z#280 <= 0
 c422: 2 x_00#23 - ap_10#25 + 3 x_02#26 + x_01#27 + an_10#29
       + 1.99999999999994 x_17#30 + 5 x_15#31 + 3 x_14#32 - ap_11#34 + x_16#35
       + an_11#37 + x_03#107 + 1.17499999999995 x_04#110 + 3 x_05#113
       + x_06#116 + 2.32499999999993 x_07#119 + x_11#124 + 2 x_10#125
       + x_13#130 + 2 x_12#131 + z#280 <= 0
 c423: 2 x_00#38 - ap_20#40 + 3 x_02#41 + x_01#42 + an_20#44
       + 1.99999999999994 x_17#45 + 5 x_15#46 + 3 x_14#47 - ap_21#49 + x_16#50
       + an_21#52 + x_03#144 + 1.17499999999995 x_04#147 + 3 x_05#150
       + x_06#153 + 2.32499999999993 x_07#156 + x_11#161 + 2 x_10#162
       + x_13#167 + 2 x_12#168 + z#280 <= 0
 c424: 2 x_00#53 - ap_30#55 + 3 x_02#56 + x_01#57 + an_30#59
       + 1.99999999999994 x_17#60 + 5 x_15#61 + 3 x_14#62 - ap_31#64 + x_16#65
       + an_31#67 + x_03#181 + 1.17499999999995 x_04#184 + 3 x_05#187
       + x_06#190 + 2.32499999999993 x_07#193 + x_11#198 + 2 x_10#199
       + x_13#204 + 2 x_12#205 + z#280 <= 0
Bounds
 0 <= x_00#8 <= 1
 0 <= hap_1_00#9 <= 1
 0 <= x_02#11 <= 1
 0 <= x_01#12 <= 1
 0 <= han_2_00#13 <= 1
 0 <= x_17#15 <= 1
 0 <= x_15#16 <= 1
 0 <= x_14#17 <= 1
 0 <= hap_1_01#18 <= 1
 0 <= x_16#20 <= 1
 0 <= han_2_01#21 <= 1
 0 <= x_00#23 <= 1
 0 <= hap_1_10#24 <= 1
 0 <= x_02#26 <= 1
 0 <= x_01#27 <= 1
 0 <= han_2_10#28 <= 1
 0 <= x_17#30 <= 1
 0 <= x_15#31 <= 1
 0 <= x_14#32 <= 1
 0 <= hap_1_11#33 <= 1
 0 <= x_16#35 <= 1
 0 <= han_2_11#36 <= 1
 0 <= x_00#38 <= 1
 0 <= hap_1_20#39 <= 1
 0 <= x_02#41 <= 1
 0 <= x_01#42 <= 1
 0 <= han_2_20#43 <= 1
 0 <= x_17#45 <= 1
 0 <= x_15#46 <= 1
 0 <= x_14#47 <= 1
 0 <= hap_1_21#48 <= 1
 0 <= x_16#50 <= 1
 0 <= han_2_21#51 <= 1
 0 <= x_00#53 <= 1
 0 <= hap_1_30#54 <= 1
 0 <= x_02#56 <= 1
 0 <= x_01#57 <= 1
 0 <= han_2_30#58 <= 1
 0 <= x_17#60 <= 1
 0 <= x_15#61 <= 1
 0 <= x_14#62 <= 1
 0 <= hap_1_31#63 <= 1
 0 <= x_16#65 <= 1
 0 <= han_2_31#66 <= 1
 0 <= hb_000#68 <= 1
 0 <= x_03#70 <= 1
 0 <= hb_004#71 <= 1
 0 <= x_04#73 <= 1
 0 <= hb_005#74 <= 1
 0 <= x_05#76 <= 1
 0 <= hb_006#77 <= 1
 0 <= x_06#79 <= 1
 0 <= hb_007#80 <= 1
 0 <= x_07#82 <= 1
 0 <= hb_008#83 <= 1
 0 <= hb_009#85 <= 1
 0 <= x_11#87 <= 1
 0 <= x_10#88 <= 1
 0 <= hb_010#89 <= 1
 0 <= hb_012#91 <= 1
 0 <= x_13#93 <= 1
 0 <= x_12#94 <= 1
 0 <= hb_013#95 <= 1
 0 <= hb_014#97 <= 1
 0 <= hb_015#99 <= 1
 0 <= hb_016#101 <= 1
 0 <= hb_018#103 <= 1
 0 <= hb_100#105 <= 1
 0 <= x_03#107 <= 1
 0 <= hb_104#108 <= 1
 0 <= x_04#110 <= 1
 0 <= hb_105#111 <= 1
 0 <= x_05#113 <= 1
 0 <= hb_106#114 <= 1
 0 <= x_06#116 <= 1
 0 <= hb_107#117 <= 1
 0 <= x_07#119 <= 1
 0 <= hb_108#120 <= 1
 0 <= hb_109#122 <= 1
 0 <= x_11#124 <= 1
 0 <= x_10#125 <= 1
 0 <= hb_110#126 <= 1
 0 <= hb_112#128 <= 1
 0 <= x_13#130 <= 1
 0 <= x_12#131 <= 1
 0 <= hb_113#132 <= 1
 0 <= hb_114#134 <= 1
 0 <= hb_115#136 <= 1
 0 <= hb_116#138 <= 1
 0 <= hb_118#140 <= 1
 0 <= hb_200#142 <= 1
 0 <= x_03#144 <= 1
 0 <= hb_204#145 <= 1
 0 <= x_04#147 <= 1
 0 <= hb_205#148 <= 1
 0 <= x_05#150 <= 1
 0 <= hb_206#151 <= 1
 0 <= x_06#153 <= 1
 0 <= hb_207#154 <= 1
 0 <= x_07#156 <= 1
 0 <= hb_208#157 <= 1
 0 <= hb_209#159 <= 1
 0 <= x_11#161 <= 1
 0 <= x_10#162 <= 1
 0 <= hb_210#163 <= 1
 0 <= hb_212#165 <= 1
 0 <= x_13#167 <= 1
 0 <= x_12#168 <= 1
 0 <= hb_213#169 <= 1
 0 <= hb_214#171 <= 1
 0 <= hb_215#173 <= 1
 0 <= hb_216#175 <= 1
 0 <= hb_218#177 <= 1
 0 <= hb_300#179 <= 1
 0 <= x_03#181 <= 1
 0 <= hb_304#182 <= 1
 0 <= x_04#184 <= 1
 0 <= hb_305#185 <= 1
 0 <= x_05#187 <= 1
 0 <= hb_306#188 <= 1
 0 <= x_06#190 <= 1
 0 <= hb_307#191 <= 1
 0 <= x_07#193 <= 1
 0 <= hb_308#194 <= 1
 0 <= hb_309#196 <= 1
 0 <= x_11#198 <= 1
 0 <= x_10#199 <= 1
 0 <= hb_310#200 <= 1
 0 <= hb_312#202 <= 1
 0 <= x_13#204 <= 1
 0 <= x_12#205 <= 1
 0 <= hb_313#206 <= 1
 0 <= hb_314#208 <= 1
 0 <= hb_315#210 <= 1
 0 <= hb_316#212 <= 1
 0 <= hb_318#214 <= 1
 0 <= hdu_000#216 <= 1
 0 <= hdu_001#217 <= 1
 0 <= hdu_002#218 <= 1
 0 <= hdu_003#219 <= 1
 0 <= hdu_004#220 <= 1
 0 <= hdu_005#221 <= 1
 0 <= hdu_006#222 <= 1
 0 <= hdu_007#223 <= 1
 0 <= hdu_010#224 <= 1
 0 <= hdu_011#225 <= 1
 0 <= hdu_012#226 <= 1
 0 <= hdu_013#227 <= 1
 0 <= hdu_014#228 <= 1
 0 <= hdu_015#229 <= 1
 0 <= hdu_016#230 <= 1
 0 <= hdu_017#231 <= 1
 0 <= hdu_100#232 <= 1
 0 <= hdu_101#233 <= 1
 0 <= hdu_102#234 <= 1
 0 <= hdu_103#235 <= 1
 0 <= hdu_104#236 <= 1
 0 <= hdu_105#237 <= 1
 0 <= hdu_106#238 <= 1
 0 <= hdu_107#239 <= 1
 0 <= hdu_110#240 <= 1
 0 <= hdu_111#241 <= 1
 0 <= hdu_112#242 <= 1
 0 <= hdu_113#243 <= 1
 0 <= hdu_114#244 <= 1
 0 <= hdu_115#245 <= 1
 0 <= hdu_116#246 <= 1
 0 <= hdu_117#247 <= 1
 0 <= hdu_200#248 <= 1
 0 <= hdu_201#249 <= 1
 0 <= hdu_202#250 <= 1
 0 <= hdu_203#251 <= 1
 0 <= hdu_204#252 <= 1
 0 <= hdu_205#253 <= 1
 0 <= hdu_206#254 <= 1
 0 <= hdu_207#255 <= 1
 0 <= hdu_210#256 <= 1
 0 <= hdu_211#257 <= 1
 0 <= hdu_212#258 <= 1
 0 <= hdu_213#259 <= 1
 0 <= hdu_214#260 <= 1
 0 <= hdu_215#261 <= 1
 0 <= hdu_216#262 <= 1
 0 <= hdu_217#263 <= 1
 0 <= hdu_300#264 <= 1
 0 <= hdu_301#265 <= 1
 0 <= hdu_302#266 <= 1
 0 <= hdu_303#267 <= 1
 0 <= hdu_304#268 <= 1
 0 <= hdu_305#269 <= 1
 0 <= hdu_306#270 <= 1
 0 <= hdu_307#271 <= 1
 0 <= hdu_310#272 <= 1
 0 <= hdu_311#273 <= 1
 0 <= hdu_312#274 <= 1
 0 <= hdu_313#275 <= 1
 0 <= hdu_314#276 <= 1
 0 <= hdu_315#277 <= 1
 0 <= hdu_316#278 <= 1
 0 <= hdu_317#279 <= 1
      z#280 Free
Binaries
 hap_1_00#9  han_2_00#13  hap_1_01#18  han_2_01#21  hap_1_10#24  han_2_10#28 
 hap_1_11#33  han_2_11#36  hap_1_20#39  han_2_20#43  hap_1_21#48  han_2_21#51 
 hap_1_30#54  han_2_30#58  hap_1_31#63  han_2_31#66  hb_000#68  hb_004#71 
 hb_005#74  hb_006#77  hb_007#80  hb_008#83  hb_009#85  hb_010#89  hb_012#91 
 hb_013#95  hb_014#97  hb_015#99  hb_016#101  hb_018#103  hb_100#105 
 hb_104#108  hb_105#111  hb_106#114  hb_107#117  hb_108#120  hb_109#122 
 hb_110#126  hb_112#128  hb_113#132  hb_114#134  hb_115#136  hb_116#138 
 hb_118#140  hb_200#142  hb_204#145  hb_205#148  hb_206#151  hb_207#154 
 hb_208#157  hb_209#159  hb_210#163  hb_212#165  hb_213#169  hb_214#171 
 hb_215#173  hb_216#175  hb_218#177  hb_300#179  hb_304#182  hb_305#185 
 hb_306#188  hb_307#191  hb_308#194  hb_309#196  hb_310#200  hb_312#202 
 hb_313#206  hb_314#208  hb_315#210  hb_316#212  hb_318#214  hdu_000#216 
 hdu_001#217  hdu_002#218  hdu_003#219  hdu_004#220  hdu_005#221  hdu_006#222 
 hdu_007#223  hdu_010#224  hdu_011#225  hdu_012#226  hdu_013#227  hdu_014#228 
 hdu_015#229  hdu_016#230  hdu_017#231  hdu_100#232  hdu_101#233  hdu_102#234 
 hdu_103#235  hdu_104#236  hdu_105#237  hdu_106#238  hdu_107#239  hdu_110#240 
 hdu_111#241  hdu_112#242  hdu_113#243  hdu_114#244  hdu_115#245  hdu_116#246 
 hdu_117#247  hdu_200#248  hdu_201#249  hdu_202#250  hdu_203#251  hdu_204#252 
 hdu_205#253  hdu_206#254  hdu_207#255  hdu_210#256  hdu_211#257  hdu_212#258 
 hdu_213#259  hdu_214#260  hdu_215#261  hdu_216#262  hdu_217#263  hdu_300#264 
 hdu_301#265  hdu_302#266  hdu_303#267  hdu_304#268  hdu_305#269  hdu_306#270 
 hdu_307#271  hdu_310#272  hdu_311#273  hdu_312#274  hdu_313#275  hdu_314#276 
 hdu_315#277  hdu_316#278  hdu_317#279 
End
